letting n =  10
letting blocks =  [[1, 1], [1, 2], [1, 7], [2, 2], [2, 3], [2, 7], [2, 9], [3, 5], [3, 6], [3, 9], [5, 5], [6, 1], [6, 2], [6, 4], [6, 9], [7, 7], [7, 9], [8, 4], [8, 9], [9, 4], [9, 5], [9, 7], [10, 2], [10, 3], [10, 5], [10, 8]]
